(set-info :smt-lib-version 2.6)
(set-logic QF_NIA)
(set-info :source |
Generated by: Cristina Borralleras, Daniel Larraz, Albert Oliveras, Enric Rodriguez-Carbonell, Albert Rubio
Generated on: 2017-04-27
Generator: VeryMax
Application: Termination proving
Target solver: barcelogic
|)
(set-info :license "https://creativecommons.org/licenses/by/4.0/")
(set-info :category "industrial")
(set-info :status sat)
(declare-fun Nl11arg11 () Int)
(declare-fun Nl11arg21 () Int)
(declare-fun Nl11arg31 () Int)
(declare-fun Nl11arg41 () Int)
(declare-fun Nl11arg51 () Int)
(declare-fun Nl11arg12 () Int)
(declare-fun Nl11arg22 () Int)
(declare-fun Nl11arg32 () Int)
(declare-fun Nl11arg42 () Int)
(declare-fun Nl11arg52 () Int)
(declare-fun Nl11arg13 () Int)
(declare-fun Nl11arg23 () Int)
(declare-fun Nl11arg33 () Int)
(declare-fun Nl11arg43 () Int)
(declare-fun Nl11arg53 () Int)
(declare-fun lam0n0 () Int)
(declare-fun lam0n1 () Int)
(declare-fun lam0n2 () Int)
(declare-fun lam0n3 () Int)
(declare-fun lam0n4 () Int)
(declare-fun lam0n5 () Int)
(declare-fun lam0n6 () Int)
(declare-fun lam0n7 () Int)
(declare-fun lam0n8 () Int)
(declare-fun lam0n9 () Int)
(declare-fun lam0n10 () Int)
(declare-fun lam0n11 () Int)
(declare-fun lam0n12 () Int)
(declare-fun lam0n13 () Int)
(declare-fun UndefCntr0_CT () Int)
(declare-fun Nl11CT1 () Int)
(declare-fun Nl11CT2 () Int)
(declare-fun Nl11CT3 () Int)
(declare-fun UndefCntr0_arg1 () Int)
(declare-fun UndefCntr0_arg2 () Int)
(declare-fun UndefCntr0_arg3 () Int)
(declare-fun UndefCntr0_arg4 () Int)
(declare-fun UndefCntr0_arg5 () Int)
(declare-fun UndefCntr0_undef304 () Int)
(declare-fun UndefCntr0_undef305 () Int)
(declare-fun UndefCntr0_undef306 () Int)
(declare-fun UndefCntr0_undef307 () Int)
(declare-fun UndefCntr0_undef308 () Int)
(declare-fun lam1n0 () Int)
(declare-fun lam1n1 () Int)
(declare-fun lam1n2 () Int)
(declare-fun lam1n3 () Int)
(declare-fun lam1n4 () Int)
(declare-fun lam1n5 () Int)
(declare-fun lam1n6 () Int)
(declare-fun lam1n7 () Int)
(declare-fun lam1n8 () Int)
(declare-fun lam1n9 () Int)
(declare-fun lam1n10 () Int)
(declare-fun lam1n11 () Int)
(declare-fun lam1n12 () Int)
(declare-fun lam1n13 () Int)
(declare-fun lam2n0 () Int)
(declare-fun lam2n1 () Int)
(declare-fun lam2n2 () Int)
(declare-fun lam2n3 () Int)
(declare-fun lam2n4 () Int)
(declare-fun lam2n5 () Int)
(declare-fun lam2n6 () Int)
(declare-fun lam2n7 () Int)
(declare-fun lam2n8 () Int)
(declare-fun lam2n9 () Int)
(declare-fun lam2n10 () Int)
(declare-fun lam2n11 () Int)
(declare-fun lam2n12 () Int)
(declare-fun lam2n13 () Int)
(declare-fun lam3n0 () Int)
(declare-fun lam3n1 () Int)
(declare-fun lam3n2 () Int)
(declare-fun lam3n3 () Int)
(declare-fun lam3n4 () Int)
(declare-fun lam3n5 () Int)
(declare-fun lam3n6 () Int)
(declare-fun lam3n7 () Int)
(declare-fun lam3n8 () Int)
(declare-fun lam3n9 () Int)
(declare-fun lam3n10 () Int)
(declare-fun lam3n11 () Int)
(declare-fun lam3n12 () Int)
(declare-fun lam3n13 () Int)
(declare-fun lam4n0 () Int)
(declare-fun lam4n1 () Int)
(declare-fun lam4n2 () Int)
(declare-fun lam4n3 () Int)
(declare-fun lam4n4 () Int)
(declare-fun lam4n5 () Int)
(declare-fun lam4n6 () Int)
(declare-fun lam4n7 () Int)
(declare-fun lam4n8 () Int)
(declare-fun lam4n9 () Int)
(declare-fun lam4n10 () Int)
(declare-fun lam4n11 () Int)
(declare-fun lam4n12 () Int)
(declare-fun lam4n13 () Int)
(declare-fun lam5n0 () Int)
(declare-fun lam5n1 () Int)
(declare-fun lam5n2 () Int)
(declare-fun lam5n3 () Int)
(declare-fun lam5n4 () Int)
(declare-fun lam5n5 () Int)
(declare-fun lam5n6 () Int)
(declare-fun lam5n7 () Int)
(declare-fun lam5n8 () Int)
(declare-fun lam5n9 () Int)
(declare-fun lam5n10 () Int)
(declare-fun lam5n11 () Int)
(declare-fun lam5n12 () Int)
(declare-fun lam5n13 () Int)
(declare-fun lam6n0 () Int)
(declare-fun lam6n1 () Int)
(declare-fun lam6n2 () Int)
(declare-fun lam6n3 () Int)
(declare-fun lam6n4 () Int)
(declare-fun lam6n5 () Int)
(declare-fun lam6n6 () Int)
(declare-fun lam6n7 () Int)
(declare-fun lam6n8 () Int)
(declare-fun lam6n9 () Int)
(declare-fun lam6n10 () Int)
(declare-fun lam6n11 () Int)
(declare-fun lam6n12 () Int)
(declare-fun lam6n13 () Int)
(declare-fun lam7n0 () Int)
(declare-fun lam7n1 () Int)
(declare-fun lam7n2 () Int)
(declare-fun lam7n3 () Int)
(declare-fun lam7n4 () Int)
(declare-fun lam7n5 () Int)
(declare-fun lam7n6 () Int)
(declare-fun lam7n7 () Int)
(declare-fun lam8n0 () Int)
(declare-fun lam8n1 () Int)
(declare-fun lam8n2 () Int)
(declare-fun lam8n3 () Int)
(declare-fun lam8n4 () Int)
(declare-fun lam8n5 () Int)
(declare-fun lam8n6 () Int)
(declare-fun lam8n7 () Int)
(declare-fun lam9n0 () Int)
(declare-fun lam9n1 () Int)
(declare-fun lam9n2 () Int)
(declare-fun lam9n3 () Int)
(declare-fun lam9n4 () Int)
(declare-fun lam9n5 () Int)
(declare-fun lam9n6 () Int)
(declare-fun lam9n7 () Int)
(declare-fun undef1 () Int)
(declare-fun undef2 () Int)
(declare-fun undef289 () Int)
(declare-fun undef301 () Int)
(declare-fun undef302 () Int)
(declare-fun undef366 () Int)
(declare-fun undef290 () Int)
(declare-fun undef303 () Int)
(declare-fun undef367 () Int)
(declare-fun undef291 () Int)
(declare-fun undef292 () Int)
(declare-fun undef293 () Int)
(declare-fun arg1 () Int)
(declare-fun arg2 () Int)
(declare-fun undef276 () Int)
(declare-fun arg3 () Int)
(declare-fun undef288 () Int)
(declare-fun undef277 () Int)
(declare-fun undef278 () Int)
(declare-fun undef279 () Int)
(declare-fun undef280 () Int)
(declare-fun FV_arg1_1 () Int)
(declare-fun FV_arg2_1 () Int)
(declare-fun FV_arg3_1 () Int)
(declare-fun FV_arg4_1 () Int)
(declare-fun FV_arg5_1 () Int)
(declare-fun lam10n0 () Int)
(declare-fun lam10n1 () Int)
(declare-fun lam10n2 () Int)
(declare-fun lam10n3 () Int)
(declare-fun lam10n4 () Int)
(declare-fun lam10n5 () Int)
(declare-fun lam10n6 () Int)
(declare-fun lam10n7 () Int)
(declare-fun lam10n8 () Int)
(declare-fun lam10n9 () Int)
(declare-fun lam10n10 () Int)
(declare-fun lam10n11 () Int)
(declare-fun lam11n0 () Int)
(declare-fun lam11n1 () Int)
(declare-fun lam11n2 () Int)
(declare-fun lam11n3 () Int)
(declare-fun lam11n4 () Int)
(declare-fun lam11n5 () Int)
(declare-fun lam11n6 () Int)
(declare-fun lam11n7 () Int)
(declare-fun lam11n8 () Int)
(declare-fun lam11n9 () Int)
(declare-fun lam11n10 () Int)
(declare-fun lam11n11 () Int)
(declare-fun UndefDef0undef306_CT () Int)
(declare-fun UndefDef0undef306_arg1 () Int)
(declare-fun UndefDef0undef306_arg2 () Int)
(declare-fun UndefDef0undef306_arg3 () Int)
(declare-fun UndefDef0undef306_arg4 () Int)
(declare-fun UndefDef0undef306_arg5 () Int)
(declare-fun lam12n0 () Int)
(declare-fun lam12n1 () Int)
(declare-fun lam12n2 () Int)
(declare-fun lam12n3 () Int)
(declare-fun lam12n4 () Int)
(declare-fun lam12n5 () Int)
(declare-fun lam12n6 () Int)
(declare-fun lam12n7 () Int)
(declare-fun lam12n8 () Int)
(declare-fun lam12n9 () Int)
(declare-fun lam12n10 () Int)
(declare-fun lam12n11 () Int)
(declare-fun FV_undef304_0 () Int)
(declare-fun FV_undef305_0 () Int)
(declare-fun FV_arg1_0 () Int)
(declare-fun FV_arg2_0 () Int)
(declare-fun FV_arg3_0 () Int)
(declare-fun FV_arg4_0 () Int)
(declare-fun FV_arg5_0 () Int)
(declare-fun FV_undef306_0 () Int)
(declare-fun FV_undef307_0 () Int)
(declare-fun FV_undef308_0 () Int)
(declare-fun lam13n0 () Int)
(declare-fun lam13n1 () Int)
(declare-fun lam13n2 () Int)
(declare-fun lam13n3 () Int)
(declare-fun lam13n4 () Int)
(declare-fun lam13n5 () Int)
(declare-fun lam13n6 () Int)
(declare-fun lam13n7 () Int)
(declare-fun lam13n8 () Int)
(declare-fun lam14n0 () Int)
(declare-fun lam14n1 () Int)
(declare-fun lam14n2 () Int)
(declare-fun lam14n3 () Int)
(declare-fun lam14n4 () Int)
(declare-fun lam14n5 () Int)
(declare-fun lam14n6 () Int)
(declare-fun lam14n7 () Int)
(declare-fun lam14n8 () Int)
(declare-fun lam15n0 () Int)
(declare-fun lam15n1 () Int)
(declare-fun lam15n2 () Int)
(declare-fun lam15n3 () Int)
(declare-fun lam15n4 () Int)
(declare-fun lam15n5 () Int)
(declare-fun lam15n6 () Int)
(declare-fun lam15n7 () Int)
(declare-fun lam15n8 () Int)
(declare-fun lam15n9 () Int)
(declare-fun lam16n0 () Int)
(declare-fun lam16n1 () Int)
(declare-fun lam16n2 () Int)
(declare-fun lam16n3 () Int)
(declare-fun lam16n4 () Int)
(declare-fun lam16n5 () Int)
(declare-fun lam16n6 () Int)
(declare-fun lam16n7 () Int)
(declare-fun lam16n8 () Int)
(declare-fun lam17n0 () Int)
(declare-fun lam17n1 () Int)
(declare-fun lam17n2 () Int)
(declare-fun lam17n3 () Int)
(declare-fun lam17n4 () Int)
(declare-fun lam17n5 () Int)
(declare-fun lam17n6 () Int)
(declare-fun lam17n7 () Int)
(declare-fun lam17n8 () Int)
(declare-fun lam17n9 () Int)
(declare-fun FV_arg1_2 () Int)
(declare-fun FV_arg2_2 () Int)
(declare-fun FV_arg4_2 () Int)
(declare-fun FV_arg3_2 () Int)
(declare-fun FV_arg5_2 () Int)
(declare-fun FV_undef306_2 () Int)
(declare-fun FV_undef304_2 () Int)
(declare-fun FV_undef305_2 () Int)
(assert ( and ( <= ( - 1 ) Nl11arg11 ) ( <= Nl11arg11 1 ) ( <= ( - 1 ) Nl11arg21 ) ( <= Nl11arg21 1 ) ( <= ( - 1 ) Nl11arg31 ) ( <= Nl11arg31 1 ) ( <= ( - 1 ) Nl11arg41 ) ( <= Nl11arg41 1 ) ( <= ( - 1 ) Nl11arg51 ) ( <= Nl11arg51 1 ) ( <= ( - 1 ) Nl11arg12 ) ( <= Nl11arg12 1 ) ( <= ( - 1 ) Nl11arg22 ) ( <= Nl11arg22 1 ) ( <= ( - 1 ) Nl11arg32 ) ( <= Nl11arg32 1 ) ( <= ( - 1 ) Nl11arg42 ) ( <= Nl11arg42 1 ) ( <= ( - 1 ) Nl11arg52 ) ( <= Nl11arg52 1 ) ( <= ( - 1 ) Nl11arg13 ) ( <= Nl11arg13 1 ) ( <= ( - 1 ) Nl11arg23 ) ( <= Nl11arg23 1 ) ( <= ( - 1 ) Nl11arg33 ) ( <= Nl11arg33 1 ) ( <= ( - 1 ) Nl11arg43 ) ( <= Nl11arg43 1 ) ( <= ( - 1 ) Nl11arg53 ) ( <= Nl11arg53 1 ) ))
(assert ( or ( and ( >= lam0n0 0 ) ( >= lam0n1 0 ) ( >= lam0n2 0 ) ( >= lam0n3 0 ) ( >= lam0n4 0 ) ( >= lam0n5 0 ) ( >= lam0n6 0 ) ( >= lam0n7 0 ) ( >= lam0n8 0 ) ( >= lam0n9 0 ) ( >= lam0n10 0 ) ( >= lam0n11 0 ) ( >= lam0n12 0 ) ( >= lam0n13 0 ) ( > ( + ( * 1 lam0n0 ) ( * 1 lam0n1 ) ( * 1 lam0n2 ) ( * 1 lam0n3 ) ( * 1 lam0n4 ) ( * 2 lam0n5 ) ( * 2 lam0n6 ) ( * 4 lam0n7 ) ( * 3 lam0n8 ) ( * 6 lam0n9 ) ( * UndefCntr0_CT lam0n10 ) ( * Nl11CT1 lam0n11 ) ( * Nl11CT2 lam0n12 ) ( * Nl11CT3 lam0n13 ) ( - 1 ) ) 0 ) ( = ( + ( * ( - 1 ) lam0n0 ) ( * ( - 1 ) lam0n5 ) ( * ( - 1 ) lam0n6 ) ( * ( - 1 ) lam0n7 ) ( * ( - 1 ) lam0n8 ) ( * ( - 1 ) lam0n9 ) ( * UndefCntr0_arg1 lam0n10 ) ( * Nl11arg11 lam0n11 ) ( * Nl11arg12 lam0n12 ) ( * Nl11arg13 lam0n13 ) ) 0 ) ( = ( + ( * ( - 1 ) lam0n0 ) ( * ( - 1 ) lam0n1 ) ( * 7 lam0n2 ) ( * ( - 1 ) lam0n5 ) ( * ( - 1 ) lam0n7 ) ( * UndefCntr0_arg2 lam0n10 ) ( * Nl11arg21 lam0n11 ) ( * Nl11arg22 lam0n12 ) ( * Nl11arg23 lam0n13 ) ) 0 ) ( = ( + ( * 1 lam0n5 ) ( * 1 lam0n9 ) ( * UndefCntr0_arg3 lam0n10 ) ( * Nl11arg31 lam0n11 ) ( * Nl11arg32 lam0n12 ) ( * Nl11arg33 lam0n13 ) ) 0 ) ( = ( + ( * 1 lam0n0 ) ( * 1 lam0n6 ) ( * UndefCntr0_arg4 lam0n10 ) ( * Nl11arg41 lam0n11 ) ( * Nl11arg42 lam0n12 ) ( * Nl11arg43 lam0n13 ) ) 0 ) ( = ( + ( * UndefCntr0_arg5 lam0n10 ) ( * Nl11arg51 lam0n11 ) ( * Nl11arg52 lam0n12 ) ( * Nl11arg53 lam0n13 ) ) 0 ) ( = ( + ( * ( - 1 ) lam0n3 ) ( * UndefCntr0_undef304 lam0n10 ) ) 0 ) ( = ( + ( * ( - 1 ) lam0n4 ) ( * UndefCntr0_undef305 lam0n10 ) ) 0 ) ( = ( + ( * 1 lam0n2 ) ( * UndefCntr0_undef306 lam0n10 ) ) 0 ) ( = ( * UndefCntr0_undef307 lam0n10 ) 0 ) ( = ( * UndefCntr0_undef308 lam0n10 ) 0 ) ) ( and ( >= lam1n0 0 ) ( >= lam1n1 0 ) ( >= lam1n2 0 ) ( >= lam1n3 0 ) ( >= lam1n4 0 ) ( >= lam1n5 0 ) ( >= lam1n6 0 ) ( >= lam1n7 0 ) ( >= lam1n8 0 ) ( >= lam1n9 0 ) ( >= lam1n10 0 ) ( >= lam1n11 0 ) ( >= lam1n12 0 ) ( >= lam1n13 0 ) ( > ( + ( * 1 lam1n0 ) ( * 1 lam1n1 ) ( * 1 lam1n2 ) ( * 1 lam1n3 ) ( * 1 lam1n4 ) ( * 2 lam1n5 ) ( * 2 lam1n6 ) ( * 4 lam1n7 ) ( * 3 lam1n8 ) ( * 6 lam1n9 ) ( * UndefCntr0_CT lam1n10 ) ( * Nl11CT1 lam1n11 ) ( * Nl11CT2 lam1n12 ) ( * Nl11CT3 lam1n13 ) ( - 1 ( + ( + ( + ( + ( + Nl11CT1 ( * Nl11arg11 0 ) ) ( * Nl11arg21 0 ) ) ( * Nl11arg31 0 ) ) ( * Nl11arg41 0 ) ) ( * Nl11arg51 0 ) ) ) ) 0 ) ( = ( + ( * ( - 1 ) lam1n0 ) ( * ( - 1 ) lam1n5 ) ( * ( - 1 ) lam1n6 ) ( * ( - 1 ) lam1n7 ) ( * ( - 1 ) lam1n8 ) ( * ( - 1 ) lam1n9 ) ( * UndefCntr0_arg1 lam1n10 ) ( * Nl11arg11 lam1n11 ) ( * Nl11arg12 lam1n12 ) ( * Nl11arg13 lam1n13 ) ) 0 ) ( = ( + ( * ( - 1 ) lam1n0 ) ( * ( - 1 ) lam1n1 ) ( * 7 lam1n2 ) ( * ( - 1 ) lam1n5 ) ( * ( - 1 ) lam1n7 ) ( * UndefCntr0_arg2 lam1n10 ) ( * Nl11arg21 lam1n11 ) ( * Nl11arg22 lam1n12 ) ( * Nl11arg23 lam1n13 ) ) 0 ) ( = ( + ( * 1 lam1n5 ) ( * 1 lam1n9 ) ( * UndefCntr0_arg3 lam1n10 ) ( * Nl11arg31 lam1n11 ) ( * Nl11arg32 lam1n12 ) ( * Nl11arg33 lam1n13 ) ) 0 ) ( = ( + ( * 1 lam1n0 ) ( * 1 lam1n6 ) ( * UndefCntr0_arg4 lam1n10 ) ( * Nl11arg41 lam1n11 ) ( * Nl11arg42 lam1n12 ) ( * Nl11arg43 lam1n13 ) ) 0 ) ( = ( + ( * UndefCntr0_arg5 lam1n10 ) ( * Nl11arg51 lam1n11 ) ( * Nl11arg52 lam1n12 ) ( * Nl11arg53 lam1n13 ) ) 0 ) ( = ( + ( * ( - 1 ) lam1n3 ) ( * UndefCntr0_undef304 lam1n10 ) ( - ( + 0 ( * Nl11arg11 1 ) ) ) ) 0 ) ( = ( + ( * ( - 1 ) lam1n4 ) ( * UndefCntr0_undef305 lam1n10 ) ( - ( + 0 ( * Nl11arg21 1 ) ) ) ) 0 ) ( = ( + ( * 1 lam1n2 ) ( * UndefCntr0_undef306 lam1n10 ) ( - ( + 0 ( * Nl11arg31 1 ) ) ) ) 0 ) ( = ( + ( * UndefCntr0_undef307 lam1n10 ) ( - ( + 0 ( * Nl11arg41 1 ) ) ) ) 0 ) ( = ( + ( * UndefCntr0_undef308 lam1n10 ) ( - ( + 0 ( * Nl11arg51 1 ) ) ) ) 0 ) ) ))
(assert ( or ( and ( >= lam0n0 0 ) ( >= lam0n1 0 ) ( >= lam0n2 0 ) ( >= lam0n3 0 ) ( >= lam0n4 0 ) ( >= lam0n5 0 ) ( >= lam0n6 0 ) ( >= lam0n7 0 ) ( >= lam0n8 0 ) ( >= lam0n9 0 ) ( >= lam0n10 0 ) ( >= lam0n11 0 ) ( >= lam0n12 0 ) ( >= lam0n13 0 ) ( > ( + ( * 1 lam0n0 ) ( * 1 lam0n1 ) ( * 1 lam0n2 ) ( * 1 lam0n3 ) ( * 1 lam0n4 ) ( * 2 lam0n5 ) ( * 2 lam0n6 ) ( * 4 lam0n7 ) ( * 3 lam0n8 ) ( * 6 lam0n9 ) ( * UndefCntr0_CT lam0n10 ) ( * Nl11CT1 lam0n11 ) ( * Nl11CT2 lam0n12 ) ( * Nl11CT3 lam0n13 ) ( - 1 ) ) 0 ) ( = ( + ( * ( - 1 ) lam0n0 ) ( * ( - 1 ) lam0n5 ) ( * ( - 1 ) lam0n6 ) ( * ( - 1 ) lam0n7 ) ( * ( - 1 ) lam0n8 ) ( * ( - 1 ) lam0n9 ) ( * UndefCntr0_arg1 lam0n10 ) ( * Nl11arg11 lam0n11 ) ( * Nl11arg12 lam0n12 ) ( * Nl11arg13 lam0n13 ) ) 0 ) ( = ( + ( * ( - 1 ) lam0n0 ) ( * ( - 1 ) lam0n1 ) ( * 7 lam0n2 ) ( * ( - 1 ) lam0n5 ) ( * ( - 1 ) lam0n7 ) ( * UndefCntr0_arg2 lam0n10 ) ( * Nl11arg21 lam0n11 ) ( * Nl11arg22 lam0n12 ) ( * Nl11arg23 lam0n13 ) ) 0 ) ( = ( + ( * 1 lam0n5 ) ( * 1 lam0n9 ) ( * UndefCntr0_arg3 lam0n10 ) ( * Nl11arg31 lam0n11 ) ( * Nl11arg32 lam0n12 ) ( * Nl11arg33 lam0n13 ) ) 0 ) ( = ( + ( * 1 lam0n0 ) ( * 1 lam0n6 ) ( * UndefCntr0_arg4 lam0n10 ) ( * Nl11arg41 lam0n11 ) ( * Nl11arg42 lam0n12 ) ( * Nl11arg43 lam0n13 ) ) 0 ) ( = ( + ( * UndefCntr0_arg5 lam0n10 ) ( * Nl11arg51 lam0n11 ) ( * Nl11arg52 lam0n12 ) ( * Nl11arg53 lam0n13 ) ) 0 ) ( = ( + ( * ( - 1 ) lam0n3 ) ( * UndefCntr0_undef304 lam0n10 ) ) 0 ) ( = ( + ( * ( - 1 ) lam0n4 ) ( * UndefCntr0_undef305 lam0n10 ) ) 0 ) ( = ( + ( * 1 lam0n2 ) ( * UndefCntr0_undef306 lam0n10 ) ) 0 ) ( = ( * UndefCntr0_undef307 lam0n10 ) 0 ) ( = ( * UndefCntr0_undef308 lam0n10 ) 0 ) ) ( and ( >= lam2n0 0 ) ( >= lam2n1 0 ) ( >= lam2n2 0 ) ( >= lam2n3 0 ) ( >= lam2n4 0 ) ( >= lam2n5 0 ) ( >= lam2n6 0 ) ( >= lam2n7 0 ) ( >= lam2n8 0 ) ( >= lam2n9 0 ) ( >= lam2n10 0 ) ( >= lam2n11 0 ) ( >= lam2n12 0 ) ( >= lam2n13 0 ) ( > ( + ( * 1 lam2n0 ) ( * 1 lam2n1 ) ( * 1 lam2n2 ) ( * 1 lam2n3 ) ( * 1 lam2n4 ) ( * 2 lam2n5 ) ( * 2 lam2n6 ) ( * 4 lam2n7 ) ( * 3 lam2n8 ) ( * 6 lam2n9 ) ( * UndefCntr0_CT lam2n10 ) ( * Nl11CT1 lam2n11 ) ( * Nl11CT2 lam2n12 ) ( * Nl11CT3 lam2n13 ) ( - 1 ( + ( + ( + ( + ( + Nl11CT2 ( * Nl11arg12 0 ) ) ( * Nl11arg22 0 ) ) ( * Nl11arg32 0 ) ) ( * Nl11arg42 0 ) ) ( * Nl11arg52 0 ) ) ) ) 0 ) ( = ( + ( * ( - 1 ) lam2n0 ) ( * ( - 1 ) lam2n5 ) ( * ( - 1 ) lam2n6 ) ( * ( - 1 ) lam2n7 ) ( * ( - 1 ) lam2n8 ) ( * ( - 1 ) lam2n9 ) ( * UndefCntr0_arg1 lam2n10 ) ( * Nl11arg11 lam2n11 ) ( * Nl11arg12 lam2n12 ) ( * Nl11arg13 lam2n13 ) ) 0 ) ( = ( + ( * ( - 1 ) lam2n0 ) ( * ( - 1 ) lam2n1 ) ( * 7 lam2n2 ) ( * ( - 1 ) lam2n5 ) ( * ( - 1 ) lam2n7 ) ( * UndefCntr0_arg2 lam2n10 ) ( * Nl11arg21 lam2n11 ) ( * Nl11arg22 lam2n12 ) ( * Nl11arg23 lam2n13 ) ) 0 ) ( = ( + ( * 1 lam2n5 ) ( * 1 lam2n9 ) ( * UndefCntr0_arg3 lam2n10 ) ( * Nl11arg31 lam2n11 ) ( * Nl11arg32 lam2n12 ) ( * Nl11arg33 lam2n13 ) ) 0 ) ( = ( + ( * 1 lam2n0 ) ( * 1 lam2n6 ) ( * UndefCntr0_arg4 lam2n10 ) ( * Nl11arg41 lam2n11 ) ( * Nl11arg42 lam2n12 ) ( * Nl11arg43 lam2n13 ) ) 0 ) ( = ( + ( * UndefCntr0_arg5 lam2n10 ) ( * Nl11arg51 lam2n11 ) ( * Nl11arg52 lam2n12 ) ( * Nl11arg53 lam2n13 ) ) 0 ) ( = ( + ( * ( - 1 ) lam2n3 ) ( * UndefCntr0_undef304 lam2n10 ) ( - ( + 0 ( * Nl11arg12 1 ) ) ) ) 0 ) ( = ( + ( * ( - 1 ) lam2n4 ) ( * UndefCntr0_undef305 lam2n10 ) ( - ( + 0 ( * Nl11arg22 1 ) ) ) ) 0 ) ( = ( + ( * 1 lam2n2 ) ( * UndefCntr0_undef306 lam2n10 ) ( - ( + 0 ( * Nl11arg32 1 ) ) ) ) 0 ) ( = ( + ( * UndefCntr0_undef307 lam2n10 ) ( - ( + 0 ( * Nl11arg42 1 ) ) ) ) 0 ) ( = ( + ( * UndefCntr0_undef308 lam2n10 ) ( - ( + 0 ( * Nl11arg52 1 ) ) ) ) 0 ) ) ))
(assert ( or ( and ( >= lam0n0 0 ) ( >= lam0n1 0 ) ( >= lam0n2 0 ) ( >= lam0n3 0 ) ( >= lam0n4 0 ) ( >= lam0n5 0 ) ( >= lam0n6 0 ) ( >= lam0n7 0 ) ( >= lam0n8 0 ) ( >= lam0n9 0 ) ( >= lam0n10 0 ) ( >= lam0n11 0 ) ( >= lam0n12 0 ) ( >= lam0n13 0 ) ( > ( + ( * 1 lam0n0 ) ( * 1 lam0n1 ) ( * 1 lam0n2 ) ( * 1 lam0n3 ) ( * 1 lam0n4 ) ( * 2 lam0n5 ) ( * 2 lam0n6 ) ( * 4 lam0n7 ) ( * 3 lam0n8 ) ( * 6 lam0n9 ) ( * UndefCntr0_CT lam0n10 ) ( * Nl11CT1 lam0n11 ) ( * Nl11CT2 lam0n12 ) ( * Nl11CT3 lam0n13 ) ( - 1 ) ) 0 ) ( = ( + ( * ( - 1 ) lam0n0 ) ( * ( - 1 ) lam0n5 ) ( * ( - 1 ) lam0n6 ) ( * ( - 1 ) lam0n7 ) ( * ( - 1 ) lam0n8 ) ( * ( - 1 ) lam0n9 ) ( * UndefCntr0_arg1 lam0n10 ) ( * Nl11arg11 lam0n11 ) ( * Nl11arg12 lam0n12 ) ( * Nl11arg13 lam0n13 ) ) 0 ) ( = ( + ( * ( - 1 ) lam0n0 ) ( * ( - 1 ) lam0n1 ) ( * 7 lam0n2 ) ( * ( - 1 ) lam0n5 ) ( * ( - 1 ) lam0n7 ) ( * UndefCntr0_arg2 lam0n10 ) ( * Nl11arg21 lam0n11 ) ( * Nl11arg22 lam0n12 ) ( * Nl11arg23 lam0n13 ) ) 0 ) ( = ( + ( * 1 lam0n5 ) ( * 1 lam0n9 ) ( * UndefCntr0_arg3 lam0n10 ) ( * Nl11arg31 lam0n11 ) ( * Nl11arg32 lam0n12 ) ( * Nl11arg33 lam0n13 ) ) 0 ) ( = ( + ( * 1 lam0n0 ) ( * 1 lam0n6 ) ( * UndefCntr0_arg4 lam0n10 ) ( * Nl11arg41 lam0n11 ) ( * Nl11arg42 lam0n12 ) ( * Nl11arg43 lam0n13 ) ) 0 ) ( = ( + ( * UndefCntr0_arg5 lam0n10 ) ( * Nl11arg51 lam0n11 ) ( * Nl11arg52 lam0n12 ) ( * Nl11arg53 lam0n13 ) ) 0 ) ( = ( + ( * ( - 1 ) lam0n3 ) ( * UndefCntr0_undef304 lam0n10 ) ) 0 ) ( = ( + ( * ( - 1 ) lam0n4 ) ( * UndefCntr0_undef305 lam0n10 ) ) 0 ) ( = ( + ( * 1 lam0n2 ) ( * UndefCntr0_undef306 lam0n10 ) ) 0 ) ( = ( * UndefCntr0_undef307 lam0n10 ) 0 ) ( = ( * UndefCntr0_undef308 lam0n10 ) 0 ) ) ( and ( >= lam3n0 0 ) ( >= lam3n1 0 ) ( >= lam3n2 0 ) ( >= lam3n3 0 ) ( >= lam3n4 0 ) ( >= lam3n5 0 ) ( >= lam3n6 0 ) ( >= lam3n7 0 ) ( >= lam3n8 0 ) ( >= lam3n9 0 ) ( >= lam3n10 0 ) ( >= lam3n11 0 ) ( >= lam3n12 0 ) ( >= lam3n13 0 ) ( > ( + ( * 1 lam3n0 ) ( * 1 lam3n1 ) ( * 1 lam3n2 ) ( * 1 lam3n3 ) ( * 1 lam3n4 ) ( * 2 lam3n5 ) ( * 2 lam3n6 ) ( * 4 lam3n7 ) ( * 3 lam3n8 ) ( * 6 lam3n9 ) ( * UndefCntr0_CT lam3n10 ) ( * Nl11CT1 lam3n11 ) ( * Nl11CT2 lam3n12 ) ( * Nl11CT3 lam3n13 ) ( - 1 ( + ( + ( + ( + ( + Nl11CT3 ( * Nl11arg13 0 ) ) ( * Nl11arg23 0 ) ) ( * Nl11arg33 0 ) ) ( * Nl11arg43 0 ) ) ( * Nl11arg53 0 ) ) ) ) 0 ) ( = ( + ( * ( - 1 ) lam3n0 ) ( * ( - 1 ) lam3n5 ) ( * ( - 1 ) lam3n6 ) ( * ( - 1 ) lam3n7 ) ( * ( - 1 ) lam3n8 ) ( * ( - 1 ) lam3n9 ) ( * UndefCntr0_arg1 lam3n10 ) ( * Nl11arg11 lam3n11 ) ( * Nl11arg12 lam3n12 ) ( * Nl11arg13 lam3n13 ) ) 0 ) ( = ( + ( * ( - 1 ) lam3n0 ) ( * ( - 1 ) lam3n1 ) ( * 7 lam3n2 ) ( * ( - 1 ) lam3n5 ) ( * ( - 1 ) lam3n7 ) ( * UndefCntr0_arg2 lam3n10 ) ( * Nl11arg21 lam3n11 ) ( * Nl11arg22 lam3n12 ) ( * Nl11arg23 lam3n13 ) ) 0 ) ( = ( + ( * 1 lam3n5 ) ( * 1 lam3n9 ) ( * UndefCntr0_arg3 lam3n10 ) ( * Nl11arg31 lam3n11 ) ( * Nl11arg32 lam3n12 ) ( * Nl11arg33 lam3n13 ) ) 0 ) ( = ( + ( * 1 lam3n0 ) ( * 1 lam3n6 ) ( * UndefCntr0_arg4 lam3n10 ) ( * Nl11arg41 lam3n11 ) ( * Nl11arg42 lam3n12 ) ( * Nl11arg43 lam3n13 ) ) 0 ) ( = ( + ( * UndefCntr0_arg5 lam3n10 ) ( * Nl11arg51 lam3n11 ) ( * Nl11arg52 lam3n12 ) ( * Nl11arg53 lam3n13 ) ) 0 ) ( = ( + ( * ( - 1 ) lam3n3 ) ( * UndefCntr0_undef304 lam3n10 ) ( - ( + 0 ( * Nl11arg13 1 ) ) ) ) 0 ) ( = ( + ( * ( - 1 ) lam3n4 ) ( * UndefCntr0_undef305 lam3n10 ) ( - ( + 0 ( * Nl11arg23 1 ) ) ) ) 0 ) ( = ( + ( * 1 lam3n2 ) ( * UndefCntr0_undef306 lam3n10 ) ( - ( + 0 ( * Nl11arg33 1 ) ) ) ) 0 ) ( = ( + ( * UndefCntr0_undef307 lam3n10 ) ( - ( + 0 ( * Nl11arg43 1 ) ) ) ) 0 ) ( = ( + ( * UndefCntr0_undef308 lam3n10 ) ( - ( + 0 ( * Nl11arg53 1 ) ) ) ) 0 ) ) ))
(assert ( and ( <= ( + Nl11CT1 ( * Nl11arg11 FV_arg1_1 ) ( * Nl11arg21 FV_arg2_1 ) ( * Nl11arg31 FV_arg3_1 ) ( * Nl11arg41 FV_arg4_1 ) ( * Nl11arg51 FV_arg5_1 ) ) 0 ) ( <= ( + Nl11CT2 ( * Nl11arg12 FV_arg1_1 ) ( * Nl11arg22 FV_arg2_1 ) ( * Nl11arg32 FV_arg3_1 ) ( * Nl11arg42 FV_arg4_1 ) ( * Nl11arg52 FV_arg5_1 ) ) 0 ) ( <= ( + Nl11CT3 ( * Nl11arg13 FV_arg1_1 ) ( * Nl11arg23 FV_arg2_1 ) ( * Nl11arg33 FV_arg3_1 ) ( * Nl11arg43 FV_arg4_1 ) ( * Nl11arg53 FV_arg5_1 ) ) 0 ) ( <= ( + 1 ( * ( - 1 ) FV_arg2_1 ) ) 0 ) ( <= ( + 6 ( * ( - 1 ) FV_arg1_1 ) FV_arg3_1 ) 0 ) ))
(assert ( or ( not ( = UndefCntr0_arg1 0 ) ) ( not ( = UndefCntr0_arg2 0 ) ) ( not ( = UndefCntr0_arg3 0 ) ) ( not ( = UndefCntr0_arg4 0 ) ) ( not ( = UndefCntr0_arg5 0 ) ) ( not ( = UndefCntr0_undef304 0 ) ) ( not ( = UndefCntr0_undef305 0 ) ) ( not ( = UndefCntr0_undef306 0 ) ) ( not ( = UndefCntr0_undef307 0 ) ) ( not ( = UndefCntr0_undef308 0 ) ) ( = UndefCntr0_CT 0 ) ))
(assert ( or ( and ( = UndefCntr0_arg1 0 ) ( = UndefCntr0_arg2 0 ) ( = UndefCntr0_arg3 0 ) ( = UndefCntr0_arg4 0 ) ( = UndefCntr0_arg5 0 ) ) ( or ( not ( = UndefCntr0_undef304 0 ) ) ( not ( = UndefCntr0_undef305 0 ) ) ( not ( = UndefCntr0_undef306 0 ) ) ( not ( = UndefCntr0_undef307 0 ) ) ( not ( = UndefCntr0_undef308 0 ) ) ) ))
(assert ( or ( and ( >= lam10n0 0 ) ( >= lam10n1 0 ) ( >= lam10n2 0 ) ( >= lam10n3 0 ) ( >= lam10n4 0 ) ( >= lam10n5 0 ) ( >= lam10n6 0 ) ( >= lam10n7 0 ) ( >= lam10n8 0 ) ( >= lam10n9 0 ) ( >= lam10n10 0 ) ( >= lam10n11 0 ) ( > ( + ( * 1 lam10n0 ) ( * 1 lam10n1 ) ( * 1 lam10n2 ) ( * 1 lam10n3 ) ( * 2 lam10n4 ) ( * 2 lam10n5 ) ( * 4 lam10n6 ) ( * 3 lam10n7 ) ( * 6 lam10n8 ) ( * Nl11CT1 lam10n9 ) ( * Nl11CT2 lam10n10 ) ( * Nl11CT3 lam10n11 ) ( - 1 ) ) 0 ) ( = ( + ( * ( - 1 ) lam10n0 ) ( * ( - 1 ) lam10n4 ) ( * ( - 1 ) lam10n5 ) ( * ( - 1 ) lam10n6 ) ( * ( - 1 ) lam10n7 ) ( * ( - 1 ) lam10n8 ) ( * Nl11arg11 lam10n9 ) ( * Nl11arg12 lam10n10 ) ( * Nl11arg13 lam10n11 ) ) 0 ) ( = ( + ( * ( - 1 ) lam10n0 ) ( * ( - 1 ) lam10n1 ) ( * ( - 1 ) lam10n4 ) ( * ( - 1 ) lam10n6 ) ( * Nl11arg21 lam10n9 ) ( * Nl11arg22 lam10n10 ) ( * Nl11arg23 lam10n11 ) ) 0 ) ( = ( + ( * 1 lam10n4 ) ( * 1 lam10n8 ) ( * Nl11arg31 lam10n9 ) ( * Nl11arg32 lam10n10 ) ( * Nl11arg33 lam10n11 ) ) 0 ) ( = ( + ( * 1 lam10n0 ) ( * 1 lam10n5 ) ( * Nl11arg41 lam10n9 ) ( * Nl11arg42 lam10n10 ) ( * Nl11arg43 lam10n11 ) ) 0 ) ( = ( + ( * Nl11arg51 lam10n9 ) ( * Nl11arg52 lam10n10 ) ( * Nl11arg53 lam10n11 ) ) 0 ) ( = ( * ( - 1 ) lam10n2 ) 0 ) ( = ( * ( - 1 ) lam10n3 ) 0 ) ) ( and ( and ( >= lam11n0 0 ) ( >= lam11n1 0 ) ( >= lam11n2 0 ) ( >= lam11n3 0 ) ( >= lam11n4 0 ) ( >= lam11n5 0 ) ( >= lam11n6 0 ) ( >= lam11n7 0 ) ( >= lam11n8 0 ) ( >= lam11n9 0 ) ( >= lam11n10 0 ) ( >= lam11n11 0 ) ( > ( + ( * 1 lam11n0 ) ( * 1 lam11n1 ) ( * 1 lam11n2 ) ( * 1 lam11n3 ) ( * 2 lam11n4 ) ( * 2 lam11n5 ) ( * 4 lam11n6 ) ( * 3 lam11n7 ) ( * 6 lam11n8 ) ( * Nl11CT1 lam11n9 ) ( * Nl11CT2 lam11n10 ) ( * Nl11CT3 lam11n11 ) ( - 1 ( + ( + 1 0 ) ( * 1 UndefDef0undef306_CT ) ) ) ) 0 ) ( = ( + ( * ( - 1 ) lam11n0 ) ( * ( - 1 ) lam11n4 ) ( * ( - 1 ) lam11n5 ) ( * ( - 1 ) lam11n6 ) ( * ( - 1 ) lam11n7 ) ( * ( - 1 ) lam11n8 ) ( * Nl11arg11 lam11n9 ) ( * Nl11arg12 lam11n10 ) ( * Nl11arg13 lam11n11 ) ( - ( * UndefDef0undef306_arg1 1 ) ) ) 0 ) ( = ( + ( * ( - 1 ) lam11n0 ) ( * ( - 1 ) lam11n1 ) ( * ( - 1 ) lam11n4 ) ( * ( - 1 ) lam11n6 ) ( * Nl11arg21 lam11n9 ) ( * Nl11arg22 lam11n10 ) ( * Nl11arg23 lam11n11 ) ( - ( + 7 ( * UndefDef0undef306_arg2 1 ) ) ) ) 0 ) ( = ( + ( * 1 lam11n4 ) ( * 1 lam11n8 ) ( * Nl11arg31 lam11n9 ) ( * Nl11arg32 lam11n10 ) ( * Nl11arg33 lam11n11 ) ( - ( * UndefDef0undef306_arg3 1 ) ) ) 0 ) ( = ( + ( * 1 lam11n0 ) ( * 1 lam11n5 ) ( * Nl11arg41 lam11n9 ) ( * Nl11arg42 lam11n10 ) ( * Nl11arg43 lam11n11 ) ( - ( * UndefDef0undef306_arg4 1 ) ) ) 0 ) ( = ( + ( * Nl11arg51 lam11n9 ) ( * Nl11arg52 lam11n10 ) ( * Nl11arg53 lam11n11 ) ( - ( * UndefDef0undef306_arg5 1 ) ) ) 0 ) ( = ( * ( - 1 ) lam11n2 ) 0 ) ( = ( * ( - 1 ) lam11n3 ) 0 ) ) ( or ( = UndefCntr0_undef306 0 ) ( and ( >= lam12n0 0 ) ( >= lam12n1 0 ) ( >= lam12n2 0 ) ( >= lam12n3 0 ) ( >= lam12n4 0 ) ( >= lam12n5 0 ) ( >= lam12n6 0 ) ( >= lam12n7 0 ) ( >= lam12n8 0 ) ( >= lam12n9 0 ) ( >= lam12n10 0 ) ( >= lam12n11 0 ) ( > ( + ( * 1 lam12n0 ) ( * 1 lam12n1 ) ( * 1 lam12n2 ) ( * 1 lam12n3 ) ( * 2 lam12n4 ) ( * 2 lam12n5 ) ( * 4 lam12n6 ) ( * 3 lam12n7 ) ( * 6 lam12n8 ) ( * Nl11CT1 lam12n9 ) ( * Nl11CT2 lam12n10 ) ( * Nl11CT3 lam12n11 ) ( - 1 ( + ( + ( + ( + ( + ( + ( + ( + ( + ( + UndefCntr0_CT 0 ) 0 ) 0 ) 0 ) 0 ) 0 ) 0 ) ( * UndefCntr0_undef306 UndefDef0undef306_CT ) ) 0 ) 0 ) ) ) 0 ) ( = ( + ( * ( - 1 ) lam12n0 ) ( * ( - 1 ) lam12n4 ) ( * ( - 1 ) lam12n5 ) ( * ( - 1 ) lam12n6 ) ( * ( - 1 ) lam12n7 ) ( * ( - 1 ) lam12n8 ) ( * Nl11arg11 lam12n9 ) ( * Nl11arg12 lam12n10 ) ( * Nl11arg13 lam12n11 ) ( - ( + UndefCntr0_arg1 ( * UndefDef0undef306_arg1 UndefCntr0_undef306 ) ) ) ) 0 ) ( = ( + ( * ( - 1 ) lam12n0 ) ( * ( - 1 ) lam12n1 ) ( * ( - 1 ) lam12n4 ) ( * ( - 1 ) lam12n6 ) ( * Nl11arg21 lam12n9 ) ( * Nl11arg22 lam12n10 ) ( * Nl11arg23 lam12n11 ) ( - ( + UndefCntr0_arg2 ( * UndefDef0undef306_arg2 UndefCntr0_undef306 ) ) ) ) 0 ) ( = ( + ( * 1 lam12n4 ) ( * 1 lam12n8 ) ( * Nl11arg31 lam12n9 ) ( * Nl11arg32 lam12n10 ) ( * Nl11arg33 lam12n11 ) ( - ( + UndefCntr0_arg3 ( * UndefDef0undef306_arg3 UndefCntr0_undef306 ) ) ) ) 0 ) ( = ( + ( * 1 lam12n0 ) ( * 1 lam12n5 ) ( * Nl11arg41 lam12n9 ) ( * Nl11arg42 lam12n10 ) ( * Nl11arg43 lam12n11 ) ( - ( + UndefCntr0_arg4 ( * UndefDef0undef306_arg4 UndefCntr0_undef306 ) ) ) ) 0 ) ( = ( + ( * Nl11arg51 lam12n9 ) ( * Nl11arg52 lam12n10 ) ( * Nl11arg53 lam12n11 ) ( - ( + UndefCntr0_arg5 ( * UndefDef0undef306_arg5 UndefCntr0_undef306 ) ) ) ) 0 ) ( = ( + ( * ( - 1 ) lam12n2 ) ( - UndefCntr0_undef304 ) ) 0 ) ( = ( + ( * ( - 1 ) lam12n3 ) ( - UndefCntr0_undef305 ) ) 0 ) ( = ( - UndefCntr0_undef307 ) 0 ) ( = ( - UndefCntr0_undef308 ) 0 ) ) ) ) ))
(assert ( or ( = UndefCntr0_undef304 0 ) ( and ( and ( = UndefCntr0_arg1 0 ) ( = UndefCntr0_arg2 0 ) ( = UndefCntr0_arg3 0 ) ( = UndefCntr0_arg4 0 ) ( = UndefCntr0_arg5 0 ) ( = UndefCntr0_undef306 0 ) ( = UndefCntr0_undef307 0 ) ( = UndefCntr0_undef308 0 ) ( = UndefCntr0_undef305 0 ) ) ( or ( and ( <= ( + 1 ( * ( - 1 ) FV_undef304_0 ) ) 0 ) ( <= ( + UndefCntr0_CT ( * UndefCntr0_undef304 FV_undef304_0 ) ( * UndefCntr0_undef305 FV_undef305_0 ) ( * UndefCntr0_arg1 FV_arg1_0 ) ( * UndefCntr0_arg2 FV_arg2_0 ) ( * UndefCntr0_arg3 FV_arg3_0 ) ( * UndefCntr0_arg4 FV_arg4_0 ) ( * UndefCntr0_arg5 FV_arg5_0 ) ( * UndefCntr0_undef306 FV_undef306_0 ) ( * UndefCntr0_undef307 FV_undef307_0 ) ( * UndefCntr0_undef308 FV_undef308_0 ) ) 0 ) ) ( and ( <= ( + 1 ( * ( - 1 ) FV_undef304_0 ) ) 0 ) ( <= ( + UndefCntr0_CT ( * UndefCntr0_undef304 FV_undef304_0 ) ( * UndefCntr0_undef305 FV_undef305_0 ) ( * UndefCntr0_arg1 FV_arg1_0 ) ( * UndefCntr0_arg2 FV_arg2_0 ) ( * UndefCntr0_arg3 FV_arg3_0 ) ( * UndefCntr0_arg4 FV_arg4_0 ) ( * UndefCntr0_arg5 FV_arg5_0 ) ( * UndefCntr0_undef306 FV_undef306_0 ) ( * UndefCntr0_undef307 FV_undef307_0 ) ( * UndefCntr0_undef308 FV_undef308_0 ) ) 0 ) ) ) ) ))
(assert ( or ( = UndefCntr0_undef305 0 ) ( and ( and ( = UndefCntr0_arg1 0 ) ( = UndefCntr0_arg2 0 ) ( = UndefCntr0_arg3 0 ) ( = UndefCntr0_arg4 0 ) ( = UndefCntr0_arg5 0 ) ( = UndefCntr0_undef306 0 ) ( = UndefCntr0_undef307 0 ) ( = UndefCntr0_undef308 0 ) ( = UndefCntr0_undef304 0 ) ) ( or ( and ( <= ( + 1 ( * ( - 1 ) FV_undef305_0 ) ) 0 ) ( <= ( + UndefCntr0_CT ( * UndefCntr0_undef304 FV_undef304_0 ) ( * UndefCntr0_undef305 FV_undef305_0 ) ( * UndefCntr0_arg1 FV_arg1_0 ) ( * UndefCntr0_arg2 FV_arg2_0 ) ( * UndefCntr0_arg3 FV_arg3_0 ) ( * UndefCntr0_arg4 FV_arg4_0 ) ( * UndefCntr0_arg5 FV_arg5_0 ) ( * UndefCntr0_undef306 FV_undef306_0 ) ( * UndefCntr0_undef307 FV_undef307_0 ) ( * UndefCntr0_undef308 FV_undef308_0 ) ) 0 ) ) ( and ( <= ( + 1 ( * ( - 1 ) FV_undef305_0 ) ) 0 ) ( <= ( + UndefCntr0_CT ( * UndefCntr0_undef304 FV_undef304_0 ) ( * UndefCntr0_undef305 FV_undef305_0 ) ( * UndefCntr0_arg1 FV_arg1_0 ) ( * UndefCntr0_arg2 FV_arg2_0 ) ( * UndefCntr0_arg3 FV_arg3_0 ) ( * UndefCntr0_arg4 FV_arg4_0 ) ( * UndefCntr0_arg5 FV_arg5_0 ) ( * UndefCntr0_undef306 FV_undef306_0 ) ( * UndefCntr0_undef307 FV_undef307_0 ) ( * UndefCntr0_undef308 FV_undef308_0 ) ) 0 ) ) ) ) ))
(assert ( or ( and ( >= lam13n0 0 ) ( >= lam13n1 0 ) ( >= lam13n2 0 ) ( >= lam13n3 0 ) ( >= lam13n4 0 ) ( >= lam13n5 0 ) ( >= lam13n6 0 ) ( >= lam13n7 0 ) ( >= lam13n8 0 ) ( > ( + ( * 1 lam13n0 ) ( * 1 lam13n1 ) ( * 2 lam13n2 ) ( * 2 lam13n3 ) ( * ( - 2 ) lam13n4 ) ( * 6 lam13n5 ) ( * Nl11CT1 lam13n6 ) ( * Nl11CT2 lam13n7 ) ( * Nl11CT3 lam13n8 ) ( - 1 ) ) 0 ) ( = ( + ( * ( - 1 ) lam13n0 ) ( * ( - 1 ) lam13n2 ) ( * ( - 1 ) lam13n3 ) ( * 1 lam13n4 ) ( * ( - 1 ) lam13n5 ) ( * Nl11arg11 lam13n6 ) ( * Nl11arg12 lam13n7 ) ( * Nl11arg13 lam13n8 ) ) 0 ) ( = ( + ( * ( - 1 ) lam13n0 ) ( * ( - 1 ) lam13n1 ) ( * ( - 1 ) lam13n2 ) ( * Nl11arg21 lam13n6 ) ( * Nl11arg22 lam13n7 ) ( * Nl11arg23 lam13n8 ) ) 0 ) ( = ( + ( * 1 lam13n2 ) ( * 1 lam13n5 ) ( * Nl11arg31 lam13n6 ) ( * Nl11arg32 lam13n7 ) ( * Nl11arg33 lam13n8 ) ) 0 ) ( = ( + ( * 1 lam13n0 ) ( * 1 lam13n3 ) ( * Nl11arg41 lam13n6 ) ( * Nl11arg42 lam13n7 ) ( * Nl11arg43 lam13n8 ) ) 0 ) ( = ( + ( * Nl11arg51 lam13n6 ) ( * Nl11arg52 lam13n7 ) ( * Nl11arg53 lam13n8 ) ) 0 ) ) ( and ( >= lam14n0 0 ) ( >= lam14n1 0 ) ( >= lam14n2 0 ) ( >= lam14n3 0 ) ( >= lam14n4 0 ) ( >= lam14n5 0 ) ( >= lam14n6 0 ) ( >= lam14n7 0 ) ( >= lam14n8 0 ) ( > ( + ( * 1 lam14n0 ) ( * 1 lam14n1 ) ( * ( - 1 ) lam14n2 ) ( * 2 lam14n3 ) ( * 4 lam14n4 ) ( * 6 lam14n5 ) ( * Nl11CT1 lam14n6 ) ( * Nl11CT2 lam14n7 ) ( * Nl11CT3 lam14n8 ) ( - 1 ) ) 0 ) ( = ( + ( * ( - 1 ) lam14n0 ) ( * 1 lam14n2 ) ( * ( - 1 ) lam14n3 ) ( * ( - 1 ) lam14n4 ) ( * ( - 1 ) lam14n5 ) ( * Nl11arg11 lam14n6 ) ( * Nl11arg12 lam14n7 ) ( * Nl11arg13 lam14n8 ) ) 0 ) ( = ( + ( * ( - 1 ) lam14n0 ) ( * ( - 1 ) lam14n1 ) ( * ( - 1 ) lam14n3 ) ( * ( - 1 ) lam14n4 ) ( * Nl11arg21 lam14n6 ) ( * Nl11arg22 lam14n7 ) ( * Nl11arg23 lam14n8 ) ) 0 ) ( = ( + ( * 1 lam14n3 ) ( * 1 lam14n5 ) ( * Nl11arg31 lam14n6 ) ( * Nl11arg32 lam14n7 ) ( * Nl11arg33 lam14n8 ) ) 0 ) ( = ( + ( * 1 lam14n0 ) ( * ( - 1 ) lam14n2 ) ( * Nl11arg41 lam14n6 ) ( * Nl11arg42 lam14n7 ) ( * Nl11arg43 lam14n8 ) ) 0 ) ( = ( + ( * Nl11arg51 lam14n6 ) ( * Nl11arg52 lam14n7 ) ( * Nl11arg53 lam14n8 ) ) 0 ) ) ( and ( >= lam15n0 0 ) ( >= lam15n1 0 ) ( >= lam15n2 0 ) ( >= lam15n3 0 ) ( >= lam15n4 0 ) ( >= lam15n5 0 ) ( >= lam15n6 0 ) ( >= lam15n7 0 ) ( >= lam15n8 0 ) ( >= lam15n9 0 ) ( > ( + ( * 1 lam15n0 ) ( * 1 lam15n1 ) ( * ( - 1 ) lam15n2 ) ( * 2 lam15n3 ) ( * ( - 2 ) lam15n4 ) ( * ( - 3 ) lam15n5 ) ( * 6 lam15n6 ) ( * Nl11CT1 lam15n7 ) ( * Nl11CT2 lam15n8 ) ( * Nl11CT3 lam15n9 ) ( - 1 ) ) 0 ) ( = ( + ( * ( - 1 ) lam15n0 ) ( * 1 lam15n2 ) ( * ( - 1 ) lam15n3 ) ( * 1 lam15n4 ) ( * 1 lam15n5 ) ( * ( - 1 ) lam15n6 ) ( * Nl11arg11 lam15n7 ) ( * Nl11arg12 lam15n8 ) ( * Nl11arg13 lam15n9 ) ) 0 ) ( = ( + ( * ( - 1 ) lam15n0 ) ( * ( - 1 ) lam15n1 ) ( * ( - 1 ) lam15n3 ) ( * 1 lam15n5 ) ( * Nl11arg21 lam15n7 ) ( * Nl11arg22 lam15n8 ) ( * Nl11arg23 lam15n9 ) ) 0 ) ( = ( + ( * 1 lam15n3 ) ( * 1 lam15n6 ) ( * Nl11arg31 lam15n7 ) ( * Nl11arg32 lam15n8 ) ( * Nl11arg33 lam15n9 ) ) 0 ) ( = ( + ( * 1 lam15n0 ) ( * ( - 1 ) lam15n2 ) ( * Nl11arg41 lam15n7 ) ( * Nl11arg42 lam15n8 ) ( * Nl11arg43 lam15n9 ) ) 0 ) ( = ( + ( * Nl11arg51 lam15n7 ) ( * Nl11arg52 lam15n8 ) ( * Nl11arg53 lam15n9 ) ) 0 ) ) ( and ( >= lam16n0 0 ) ( >= lam16n1 0 ) ( >= lam16n2 0 ) ( >= lam16n3 0 ) ( >= lam16n4 0 ) ( >= lam16n5 0 ) ( >= lam16n6 0 ) ( >= lam16n7 0 ) ( >= lam16n8 0 ) ( > ( + ( * 1 lam16n0 ) ( * ( - 1 ) lam16n1 ) ( * 2 lam16n3 ) ( * 4 lam16n4 ) ( * 6 lam16n5 ) ( * Nl11CT1 lam16n6 ) ( * Nl11CT2 lam16n7 ) ( * Nl11CT3 lam16n8 ) ( - 1 ) ) 0 ) ( = ( + ( * 1 lam16n1 ) ( * 1 lam16n2 ) ( * ( - 1 ) lam16n3 ) ( * ( - 1 ) lam16n4 ) ( * ( - 1 ) lam16n5 ) ( * Nl11arg11 lam16n6 ) ( * Nl11arg12 lam16n7 ) ( * Nl11arg13 lam16n8 ) ) 0 ) ( = ( + ( * ( - 1 ) lam16n0 ) ( * 1 lam16n2 ) ( * ( - 1 ) lam16n3 ) ( * ( - 1 ) lam16n4 ) ( * Nl11arg21 lam16n6 ) ( * Nl11arg22 lam16n7 ) ( * Nl11arg23 lam16n8 ) ) 0 ) ( = ( + ( * 1 lam16n3 ) ( * 1 lam16n5 ) ( * Nl11arg31 lam16n6 ) ( * Nl11arg32 lam16n7 ) ( * Nl11arg33 lam16n8 ) ) 0 ) ( = ( + ( * ( - 1 ) lam16n1 ) ( * ( - 1 ) lam16n2 ) ( * Nl11arg41 lam16n6 ) ( * Nl11arg42 lam16n7 ) ( * Nl11arg43 lam16n8 ) ) 0 ) ( = ( + ( * Nl11arg51 lam16n6 ) ( * Nl11arg52 lam16n7 ) ( * Nl11arg53 lam16n8 ) ) 0 ) ) ( and ( >= lam17n0 0 ) ( >= lam17n1 0 ) ( >= lam17n2 0 ) ( >= lam17n3 0 ) ( >= lam17n4 0 ) ( >= lam17n5 0 ) ( >= lam17n6 0 ) ( >= lam17n7 0 ) ( >= lam17n8 0 ) ( >= lam17n9 0 ) ( > ( + ( * 1 lam17n0 ) ( * ( - 1 ) lam17n1 ) ( * 2 lam17n3 ) ( * ( - 2 ) lam17n4 ) ( * ( - 3 ) lam17n5 ) ( * 6 lam17n6 ) ( * Nl11CT1 lam17n7 ) ( * Nl11CT2 lam17n8 ) ( * Nl11CT3 lam17n9 ) ( - 1 ) ) 0 ) ( = ( + ( * 1 lam17n1 ) ( * 1 lam17n2 ) ( * ( - 1 ) lam17n3 ) ( * 1 lam17n4 ) ( * 1 lam17n5 ) ( * ( - 1 ) lam17n6 ) ( * Nl11arg11 lam17n7 ) ( * Nl11arg12 lam17n8 ) ( * Nl11arg13 lam17n9 ) ) 0 ) ( = ( + ( * ( - 1 ) lam17n0 ) ( * 1 lam17n2 ) ( * ( - 1 ) lam17n3 ) ( * 1 lam17n5 ) ( * Nl11arg21 lam17n7 ) ( * Nl11arg22 lam17n8 ) ( * Nl11arg23 lam17n9 ) ) 0 ) ( = ( + ( * 1 lam17n3 ) ( * 1 lam17n6 ) ( * Nl11arg31 lam17n7 ) ( * Nl11arg32 lam17n8 ) ( * Nl11arg33 lam17n9 ) ) 0 ) ( = ( + ( * ( - 1 ) lam17n1 ) ( * ( - 1 ) lam17n2 ) ( * Nl11arg41 lam17n7 ) ( * Nl11arg42 lam17n8 ) ( * Nl11arg43 lam17n9 ) ) 0 ) ( = ( + ( * Nl11arg51 lam17n7 ) ( * Nl11arg52 lam17n8 ) ( * Nl11arg53 lam17n9 ) ) 0 ) ) ))
(assert ( and ( and ( <= ( + Nl11CT1 ( * Nl11arg11 FV_arg1_2 ) ( * Nl11arg21 FV_arg2_2 ) ( * Nl11arg41 FV_arg4_2 ) ( * Nl11arg31 FV_arg3_2 ) ( * Nl11arg51 FV_arg5_2 ) ) 0 ) ( <= ( + Nl11CT2 ( * Nl11arg12 FV_arg1_2 ) ( * Nl11arg22 FV_arg2_2 ) ( * Nl11arg42 FV_arg4_2 ) ( * Nl11arg32 FV_arg3_2 ) ( * Nl11arg52 FV_arg5_2 ) ) 0 ) ( <= ( + Nl11CT3 ( * Nl11arg13 FV_arg1_2 ) ( * Nl11arg23 FV_arg2_2 ) ( * Nl11arg43 FV_arg4_2 ) ( * Nl11arg33 FV_arg3_2 ) ( * Nl11arg53 FV_arg5_2 ) ) 0 ) ) ( and ( <= ( + 1 ( * ( - 1 ) FV_arg1_2 ) ( * ( - 1 ) FV_arg2_2 ) FV_arg4_2 ) 0 ) ( <= ( + 1 ( * ( - 1 ) FV_arg2_2 ) ) 0 ) ( <= ( + 1 ( * 7 FV_arg2_2 ) FV_undef306_2 ) 0 ) ( <= ( + 1 ( * ( - 1 ) FV_undef304_2 ) ) 0 ) ( <= ( + 1 ( * ( - 1 ) FV_undef305_2 ) ) 0 ) ( <= ( + 2 ( * ( - 1 ) FV_arg1_2 ) ( * ( - 1 ) FV_arg2_2 ) FV_arg3_2 ) 0 ) ( <= ( + 2 ( * ( - 1 ) FV_arg1_2 ) FV_arg4_2 ) 0 ) ( <= ( + 4 ( * ( - 1 ) FV_arg1_2 ) ( * ( - 1 ) FV_arg2_2 ) ) 0 ) ( <= ( + 3 ( * ( - 1 ) FV_arg1_2 ) ) 0 ) ( <= ( + 6 ( * ( - 1 ) FV_arg1_2 ) FV_arg3_2 ) 0 ) ) ))
(check-sat)
(exit)
